instances/knapsack/discrete_knapsack_uncertainty/knapsack_50_3.lp
\ Model knapsack_50_3
\ LP format - for model browsing. Use MPS format to capture full model detail.
\ Signature: 0xe2d4f45d0ac270ee
Minimize
  - 69 x[0] - 22 x[1] - 15 x[2] - 75 x[3] - 5 x[4] - 100 x[5] - 61 x[6]
   - 7 x[7] - 50 x[8] - 42 x[9] - 34 x[10] - 78 x[11] - 30 x[12] - 89 x[13]
   - 70 x[14] - 27 x[15] - 61 x[16] - 57 x[17] - 74 x[18] - 17 x[19]
   - 53 x[20] - 98 x[21] - 75 x[22] - 51 x[23] - 36 x[24] - 94 x[25]
   - 51 x[26] - 3 x[27] - 29 x[28] - 48 x[29] - 84 x[30] - 67 x[31]
   - 99 x[32] - 38 x[33] - 35 x[34] - 60 x[35] - 4 x[36] - 66 x[37]
   - 2 x[38] - 19 x[39] - 83 x[40] - 97 x[41] - 61 x[42] - 70 x[43]
   - 22 x[44] - 90 x[45] - 48 x[46] - 8 x[47] - 28 x[48] - 33 x[49]
Subject To
 primal_upper: 47 x[0] + 99 x[1] + 89 x[2] + 46 x[3] + 19 x[4] + 49 x[5]
   + 40 x[6] + 27 x[7] + 52 x[8] + 89 x[9] + 67 x[10] + 46 x[11] + 47 x[12]
   + 63 x[13] + 92 x[14] + 52 x[15] + 28 x[16] + 71 x[17] + 76 x[18]
   + x[19] + 72 x[20] + 99 x[21] + 51 x[22] + 62 x[23] + 20 x[24]
   + 39 x[25] + 17 x[26] + 23 x[27] + 61 x[28] + 10 x[29] + 69 x[30]
   + 23 x[31] + 71 x[32] + 96 x[33] + 91 x[34] + 60 x[35] + 55 x[36]
   + 16 x[37] + 79 x[38] + 66 x[39] + 26 x[40] + 65 x[41] + x[42]
   + 97 x[43] + 46 x[44] + 42 x[45] + 89 x[46] + x[47] + 34 x[48]
   + 99 x[49] + 4.7 r[0] + 9.9 r[1] + 8.9 r[2] + 4.6 r[3] + 1.9 r[4]
   + 4.9 r[5] + 4 r[6] + 2.7 r[7] + 5.2 r[8] + 8.9 r[9] + 6.7 r[10]
   + 4.6 r[11] + 4.7 r[12] + 6.3 r[13] + 9.2 r[14] + 5.2 r[15] + 2.8 r[16]
   + 7.1 r[17] + 7.6 r[18] + 0.1 r[19] + 7.2 r[20] + 9.9 r[21] + 5.1 r[22]
   + 6.2 r[23] + 2 r[24] + 3.9 r[25] + 1.7 r[26] + 2.3 r[27] + 6.1 r[28]
   + r[29] + 6.9 r[30] + 2.3 r[31] + 7.1 r[32] + 9.6 r[33] + 9.1 r[34]
   + 6 r[35] + 5.5 r[36] + 1.6 r[37] + 7.9 r[38] + 6.6 r[39] + 2.6 r[40]
   + 6.5 r[41] + 0.1 r[42] + 9.7 r[43] + 4.6 r[44] + 4.2 r[45] + 8.9 r[46]
   + 0.1 r[47] + 3.4 r[48] + 9.9 r[49] <= 255
 primal_lower: 0.8477558654527307 x[0] + 4.483804604839265 x[1]
   + 2.825837085057155 x[2] + 0.5857878744761494 x[3]
   + 3.183603176584658 x[4] + 2.381620193585955 x[5]
   + 4.332710676566728 x[6] + 3.547563341278888 x[7]
   + 4.718045441305585 x[8] + 1.52826026401053 x[9]
   + 4.078085322111139 x[10] + 1.004487478294287 x[11]
   + 4.121372962696237 x[12] + 1.492157893791856 x[13]
   + 1.326112342216023 x[14] + 1.70382201646717 x[15]
   + 4.078486878159974 x[16] + 0.7788726449332858 x[17]
   + 0.8574441936581746 x[18] + 4.798670890286544 x[19]
   + 2.835368847529889 x[20] + 2.100490992073632 x[21]
   + 4.476663777920137 x[22] + 4.860335010594546 x[23]
   + 4.377567582570287 x[24] + 1.938651541744965 x[25]
   + 2.795789716119405 x[26] + 2.545084461529805 x[27]
   + 3.229401514301951 x[28] + 4.069609350819715 x[29]
   + 2.364955087559647 x[30] + 2.392733026978393 x[31]
   + 2.083589161809466 x[32] + 2.430346567952904 x[33]
   + 3.530784461830978 x[34] + 1.507214468933602 x[35]
   + 0.8178584703669705 x[36] + 3.684611304735139 x[37]
   + 1.777246614958772 x[38] + 3.776767633986461 x[39]
   + 1.345198902066851 x[40] + 3.109514045551788 x[41]
   + 0.7097913566100691 x[42] + 0.2773280568689549 x[43]
   + 0.3003199809043284 x[44] + 3.442275379027443 x[45]
   + 1.877200891127864 x[46] + 1.298314674844324 x[47]
   + 0.4204070223964017 x[48] + 0.4544667625070443 x[49] + 68 u[0]
   + 25 u[1] + 47 u[2] + 76 u[3] + 49 u[4] + 2 u[5] + 70 u[6] + 40 u[7]
   + 58 u[8] + 7 u[9] + 48 u[10] + 88 u[11] + 77 u[12] + 21 u[13]
   + 21 u[14] + 77 u[15] + 98 u[16] + 85 u[17] + 90 u[18] + 63 u[19]
   + 26 u[20] + 60 u[21] + 85 u[22] + 51 u[23] + 37 u[24] + 33 u[25]
   + 19 u[26] + 100 u[27] + 74 u[28] + 96 u[29] + 10 u[30] + 56 u[31]
   + 28 u[32] + 46 u[33] + 89 u[34] + 2 u[35] + u[36] + 61 u[37] + 85 u[38]
   + 67 u[39] + 100 u[40] + 30 u[41] + 79 u[42] + 46 u[43] + 28 u[44]
   + 11 u[45] + 86 u[46] + 38 u[47] + 80 u[48] + 89 u[49] <= 62503
 mccormick1[0]: - u[0] + r[0] <= 0
 mccormick1[1]: - u[1] + r[1] <= 0
 mccormick1[2]: - u[2] + r[2] <= 0
 mccormick1[3]: - u[3] + r[3] <= 0
 mccormick1[4]: - u[4] + r[4] <= 0
 mccormick1[5]: - u[5] + r[5] <= 0
 mccormick1[6]: - u[6] + r[6] <= 0
 mccormick1[7]: - u[7] + r[7] <= 0
 mccormick1[8]: - u[8] + r[8] <= 0
 mccormick1[9]: - u[9] + r[9] <= 0
 mccormick1[10]: - u[10] + r[10] <= 0
 mccormick1[11]: - u[11] + r[11] <= 0
 mccormick1[12]: - u[12] + r[12] <= 0
 mccormick1[13]: - u[13] + r[13] <= 0
 mccormick1[14]: - u[14] + r[14] <= 0
 mccormick1[15]: - u[15] + r[15] <= 0
 mccormick1[16]: - u[16] + r[16] <= 0
 mccormick1[17]: - u[17] + r[17] <= 0
 mccormick1[18]: - u[18] + r[18] <= 0
 mccormick1[19]: - u[19] + r[19] <= 0
 mccormick1[20]: - u[20] + r[20] <= 0
 mccormick1[21]: - u[21] + r[21] <= 0
 mccormick1[22]: - u[22] + r[22] <= 0
 mccormick1[23]: - u[23] + r[23] <= 0
 mccormick1[24]: - u[24] + r[24] <= 0
 mccormick1[25]: - u[25] + r[25] <= 0
 mccormick1[26]: - u[26] + r[26] <= 0
 mccormick1[27]: - u[27] + r[27] <= 0
 mccormick1[28]: - u[28] + r[28] <= 0
 mccormick1[29]: - u[29] + r[29] <= 0
 mccormick1[30]: - u[30] + r[30] <= 0
 mccormick1[31]: - u[31] + r[31] <= 0
 mccormick1[32]: - u[32] + r[32] <= 0
 mccormick1[33]: - u[33] + r[33] <= 0
 mccormick1[34]: - u[34] + r[34] <= 0
 mccormick1[35]: - u[35] + r[35] <= 0
 mccormick1[36]: - u[36] + r[36] <= 0
 mccormick1[37]: - u[37] + r[37] <= 0
 mccormick1[38]: - u[38] + r[38] <= 0
 mccormick1[39]: - u[39] + r[39] <= 0
 mccormick1[40]: - u[40] + r[40] <= 0
 mccormick1[41]: - u[41] + r[41] <= 0
 mccormick1[42]: - u[42] + r[42] <= 0
 mccormick1[43]: - u[43] + r[43] <= 0
 mccormick1[44]: - u[44] + r[44] <= 0
 mccormick1[45]: - u[45] + r[45] <= 0
 mccormick1[46]: - u[46] + r[46] <= 0
 mccormick1[47]: - u[47] + r[47] <= 0
 mccormick1[48]: - u[48] + r[48] <= 0
 mccormick1[49]: - u[49] + r[49] <= 0
 mccormick2[0]: - x[0] + r[0] <= 0
 mccormick2[1]: - x[1] + r[1] <= 0
 mccormick2[2]: - x[2] + r[2] <= 0
 mccormick2[3]: - x[3] + r[3] <= 0
 mccormick2[4]: - x[4] + r[4] <= 0
 mccormick2[5]: - x[5] + r[5] <= 0
 mccormick2[6]: - x[6] + r[6] <= 0
 mccormick2[7]: - x[7] + r[7] <= 0
 mccormick2[8]: - x[8] + r[8] <= 0
 mccormick2[9]: - x[9] + r[9] <= 0
 mccormick2[10]: - x[10] + r[10] <= 0
 mccormick2[11]: - x[11] + r[11] <= 0
 mccormick2[12]: - x[12] + r[12] <= 0
 mccormick2[13]: - x[13] + r[13] <= 0
 mccormick2[14]: - x[14] + r[14] <= 0
 mccormick2[15]: - x[15] + r[15] <= 0
 mccormick2[16]: - x[16] + r[16] <= 0
 mccormick2[17]: - x[17] + r[17] <= 0
 mccormick2[18]: - x[18] + r[18] <= 0
 mccormick2[19]: - x[19] + r[19] <= 0
 mccormick2[20]: - x[20] + r[20] <= 0
 mccormick2[21]: - x[21] + r[21] <= 0
 mccormick2[22]: - x[22] + r[22] <= 0
 mccormick2[23]: - x[23] + r[23] <= 0
 mccormick2[24]: - x[24] + r[24] <= 0
 mccormick2[25]: - x[25] + r[25] <= 0
 mccormick2[26]: - x[26] + r[26] <= 0
 mccormick2[27]: - x[27] + r[27] <= 0
 mccormick2[28]: - x[28] + r[28] <= 0
 mccormick2[29]: - x[29] + r[29] <= 0
 mccormick2[30]: - x[30] + r[30] <= 0
 mccormick2[31]: - x[31] + r[31] <= 0
 mccormick2[32]: - x[32] + r[32] <= 0
 mccormick2[33]: - x[33] + r[33] <= 0
 mccormick2[34]: - x[34] + r[34] <= 0
 mccormick2[35]: - x[35] + r[35] <= 0
 mccormick2[36]: - x[36] + r[36] <= 0
 mccormick2[37]: - x[37] + r[37] <= 0
 mccormick2[38]: - x[38] + r[38] <= 0
 mccormick2[39]: - x[39] + r[39] <= 0
 mccormick2[40]: - x[40] + r[40] <= 0
 mccormick2[41]: - x[41] + r[41] <= 0
 mccormick2[42]: - x[42] + r[42] <= 0
 mccormick2[43]: - x[43] + r[43] <= 0
 mccormick2[44]: - x[44] + r[44] <= 0
 mccormick2[45]: - x[45] + r[45] <= 0
 mccormick2[46]: - x[46] + r[46] <= 0
 mccormick2[47]: - x[47] + r[47] <= 0
 mccormick2[48]: - x[48] + r[48] <= 0
 mccormick2[49]: - x[49] + r[49] <= 0
 mccormick3[0]: x[0] + u[0] - r[0] <= 1
 mccormick3[1]: x[1] + u[1] - r[1] <= 1
 mccormick3[2]: x[2] + u[2] - r[2] <= 1
 mccormick3[3]: x[3] + u[3] - r[3] <= 1
 mccormick3[4]: x[4] + u[4] - r[4] <= 1
 mccormick3[5]: x[5] + u[5] - r[5] <= 1
 mccormick3[6]: x[6] + u[6] - r[6] <= 1
 mccormick3[7]: x[7] + u[7] - r[7] <= 1
 mccormick3[8]: x[8] + u[8] - r[8] <= 1
 mccormick3[9]: x[9] + u[9] - r[9] <= 1
 mccormick3[10]: x[10] + u[10] - r[10] <= 1
 mccormick3[11]: x[11] + u[11] - r[11] <= 1
 mccormick3[12]: x[12] + u[12] - r[12] <= 1
 mccormick3[13]: x[13] + u[13] - r[13] <= 1
 mccormick3[14]: x[14] + u[14] - r[14] <= 1
 mccormick3[15]: x[15] + u[15] - r[15] <= 1
 mccormick3[16]: x[16] + u[16] - r[16] <= 1
 mccormick3[17]: x[17] + u[17] - r[17] <= 1
 mccormick3[18]: x[18] + u[18] - r[18] <= 1
 mccormick3[19]: x[19] + u[19] - r[19] <= 1
 mccormick3[20]: x[20] + u[20] - r[20] <= 1
 mccormick3[21]: x[21] + u[21] - r[21] <= 1
 mccormick3[22]: x[22] + u[22] - r[22] <= 1
 mccormick3[23]: x[23] + u[23] - r[23] <= 1
 mccormick3[24]: x[24] + u[24] - r[24] <= 1
 mccormick3[25]: x[25] + u[25] - r[25] <= 1
 mccormick3[26]: x[26] + u[26] - r[26] <= 1
 mccormick3[27]: x[27] + u[27] - r[27] <= 1
 mccormick3[28]: x[28] + u[28] - r[28] <= 1
 mccormick3[29]: x[29] + u[29] - r[29] <= 1
 mccormick3[30]: x[30] + u[30] - r[30] <= 1
 mccormick3[31]: x[31] + u[31] - r[31] <= 1
 mccormick3[32]: x[32] + u[32] - r[32] <= 1
 mccormick3[33]: x[33] + u[33] - r[33] <= 1
 mccormick3[34]: x[34] + u[34] - r[34] <= 1
 mccormick3[35]: x[35] + u[35] - r[35] <= 1
 mccormick3[36]: x[36] + u[36] - r[36] <= 1
 mccormick3[37]: x[37] + u[37] - r[37] <= 1
 mccormick3[38]: x[38] + u[38] - r[38] <= 1
 mccormick3[39]: x[39] + u[39] - r[39] <= 1
 mccormick3[40]: x[40] + u[40] - r[40] <= 1
 mccormick3[41]: x[41] + u[41] - r[41] <= 1
 mccormick3[42]: x[42] + u[42] - r[42] <= 1
 mccormick3[43]: x[43] + u[43] - r[43] <= 1
 mccormick3[44]: x[44] + u[44] - r[44] <= 1
 mccormick3[45]: x[45] + u[45] - r[45] <= 1
 mccormick3[46]: x[46] + u[46] - r[46] <= 1
 mccormick3[47]: x[47] + u[47] - r[47] <= 1
 mccormick3[48]: x[48] + u[48] - r[48] <= 1
 mccormick3[49]: x[49] + u[49] - r[49] <= 1
Bounds
Binaries
 x[0] x[1] x[2] x[3] x[4] x[5] x[6] x[7] x[8] x[9] x[10] x[11] x[12] x[13]
 x[14] x[15] x[16] x[17] x[18] x[19] x[20] x[21] x[22] x[23] x[24] x[25]
 x[26] x[27] x[28] x[29] x[30] x[31] x[32] x[33] x[34] x[35] x[36] x[37]
 x[38] x[39] x[40] x[41] x[42] x[43] x[44] x[45] x[46] x[47] x[48] x[49]
 u[0] u[1] u[2] u[3] u[4] u[5] u[6] u[7] u[8] u[9] u[10] u[11] u[12] u[13]
 u[14] u[15] u[16] u[17] u[18] u[19] u[20] u[21] u[22] u[23] u[24] u[25]
 u[26] u[27] u[28] u[29] u[30] u[31] u[32] u[33] u[34] u[35] u[36] u[37]
 u[38] u[39] u[40] u[41] u[42] u[43] u[44] u[45] u[46] u[47] u[48] u[49]
 r[0] r[1] r[2] r[3] r[4] r[5] r[6] r[7] r[8] r[9] r[10] r[11] r[12] r[13]
 r[14] r[15] r[16] r[17] r[18] r[19] r[20] r[21] r[22] r[23] r[24] r[25]
 r[26] r[27] r[28] r[29] r[30] r[31] r[32] r[33] r[34] r[35] r[36] r[37]
 r[38] r[39] r[40] r[41] r[42] r[43] r[44] r[45] r[46] r[47] r[48] r[49]
End
