instances/knapsack/discrete_knapsack_uncertainty/knapsack_50_3.kp
83064
50
255

47 4.7 69
99 9.9 22
89 8.9 15
46 4.6 75
19 1.9 5
49 4.9 100
40 4.0 61
27 2.7 7
52 5.2 50
89 8.9 42
67 6.7 34
46 4.6 78
47 4.7 30
63 6.3 89
92 9.2 70
52 5.2 27
28 2.8 61
71 7.1 57
76 7.6 74
1 0.1 17
72 7.2 53
99 9.9 98
51 5.1 75
62 6.2 51
20 2.0 36
39 3.9 94
17 1.7 51
23 2.3 3
61 6.1 29
10 1.0 48
69 6.9 84
23 2.3 67
71 7.1 99
96 9.6 38
91 9.1 35
60 6.0 60
55 5.5 4
16 1.6 66
79 7.9 2
66 6.6 19
26 2.6 83
65 6.5 97
1 0.1 61
97 9.7 70
46 4.6 22
42 4.2 90
89 8.9 48
1 0.1 8
34 3.4 28
99 9.9 33

62503
259

[0.8477558654527307 4.483804604839265 2.8258370850571546 0.5857878744761494 3.183603176584658 2.3816201935859547 4.3327106765667285 3.547563341278888 4.718045441305585 1.5282602640105298 4.078085322111139 1.0044874782942872 4.1213729626962365 1.4921578937918556 1.3261123422160233 1.7038220164671705 4.078486878159974 0.7788726449332858 0.8574441936581746 4.7986708902865445 2.835368847529889 2.1004909920736323 4.476663777920137 4.860335010594546 4.377567582570287 1.9386515417449652 2.795789716119405 2.545084461529805 3.229401514301951 4.069609350819715 2.364955087559647 2.3927330269783926 2.083589161809466 2.430346567952904 3.5307844618309776 1.5072144689336022 0.8178584703669705 3.684611304735139 1.7772466149587718 3.7767676339864606 1.3451989020668509 3.1095140455517876 0.7097913566100691 0.2773280568689549 0.30031998090432843 3.4422753790274427 1.8772008911278637 1.298314674844324 0.4204070223964017 0.45446676250704426]

[68 25 47 76 49 2 70 40 58 7 48 88 77 21 21 77 98 85 90 63 26 60 85 51 37 33 19 100 74 96 10 56 28 46 89 2 1 61 85 67 100 30 79 46 28 11 86 38 80 89]
